NAME: typeset.1723.25.sop
COMMENT: Received by Ghassan Shobaki
DIMENSION: 27
TYPE: SOP
EDGE_WEIGHT_TYPE: EXPLICIT
EDGE_WEIGHT_FORMAT: FULL_MATRIX
EDGE_WEIGHT_SECTION
27
0   0   0   0   0   0   0   0   0   0   0   0   0   0   0   0   0   0   0   0   0   0   0   0   0   0   34  
-1  0   2   5   1   5   6   5   3   4   7   2   10  11  12  13  10  11  11  12  12  13  11  12  11  12  0   
-1  2   0   7   3   5   6   5   1   4   7   2   10  11  10  11  10  11  11  12  10  11  11  12  9   10  0   
-1  5   7   0   6   8   3   8   8   7   10  5   13  12  13  12  13  12  12  11  13  12  12  11  14  13  0   
-1  -1  3   6   0   6   5   6   2   5   6   3   11  12  13  14  11  12  12  13  13  14  12  13  12  13  0   
-1  5   5   8   -1  0   9   2   6   5   6   3   9   10  11  12  9   10  10  11  11  12  10  11  10  11  0   
-1  6   -1  -1  5   9   0   7   5   6   9   6   14  13  14  13  14  13  15  14  14  13  15  14  13  12  0   
-1  5   5   8   6   2   -1  0   6   3   8   5   11  12  11  12  11  12  12  13  11  12  12  13  10  11  0   
-1  3   -1  8   2   6   -1  -1  0   5   6   3   11  12  11  12  11  12  12  13  11  12  12  13  10  11  0   
-1  4   4   7   5   5   6   3   -1  0   7   4   10  11  10  11  10  11  11  12  10  11  11  12  9   10  0   
-1  -1  -1  -1  -1  -1  9   8   6   7   0   5   5   6   7   8   5   6   6   7   7   8   6   7   6   7   0   
-1  2   2   5   3   3   6   5   3   4   -1  0   8   9   10  11  8   9   9   10  10  11  9   10  9   10  0   
-1  10  10  13  11  9   14  11  11  10  5   8   0   1   2   3   2   3   1   2   4   5   3   4   3   4   0   
-1  11  11  12  12  10  13  12  12  11  6   9   -1  0   3   2   3   2   2   1   5   4   4   3   4   3   0   
-1  12  10  13  13  11  14  11  11  10  7   10  2   3   0   1   4   5   1   2   2   3   3   4   3   4   0   
-1  13  11  12  14  12  13  12  12  11  8   11  3   2   -1  0   5   4   2   1   3   2   4   3   4   3   0   
-1  10  10  13  11  9   14  11  11  10  5   8   2   3   4   5   0   1   3   4   2   3   1   2   1   2   0   
-1  11  11  12  12  10  13  12  12  11  6   9   3   2   5   4   -1  0   4   3   3   2   2   1   2   1   0   
-1  11  11  12  12  10  15  12  12  11  6   9   1   2   1   2   3   4   0   1   3   4   2   3   4   5   0   
-1  12  12  11  13  11  14  13  13  12  7   10  2   1   2   1   4   3   -1  0   4   3   3   2   5   4   0   
-1  12  10  13  13  11  14  11  11  10  7   10  4   5   2   3   2   3   3   4   0   1   1   2   1   2   0   
-1  13  11  12  14  12  13  12  12  11  8   11  5   4   3   2   3   2   4   3   -1  0   2   1   2   1   0   
-1  11  11  12  12  10  15  12  12  11  6   9   3   4   3   4   1   2   2   3   1   2   0   1   2   3   0   
-1  12  12  11  13  11  14  13  13  12  7   10  4   3   4   3   2   1   3   2   2   1   -1  0   3   2   0   
-1  11  9   14  12  10  13  10  10  9   6   9   3   4   3   4   1   2   4   5   1   2   2   3   0   1   0   
-1  12  10  13  13  11  12  11  11  10  7   10  4   3   4   3   2   1   5   4   2   1   3   2   -1  0   0   
-1  -1  -1  -1  -1  -1  -1  -1  -1  -1  -1  -1  -1  -1  -1  -1  -1  -1  -1  -1  -1  -1  -1  -1  -1  -1  0   
EOF